c --- [ banner ] -------------------------------------------------------------
c 
c CaDiCaL Radically Simplified CDCL SAT Solver
c Copyright (c) 2016-2021 A. Biere, M. Fleury, N. Froleyks
c 
c Version 1.5.2 ca9bff05c11bde5eae4912f9932871d1527e61d8
c g++ (GCC) 9.3.0 -Wall -Wextra -O3 -DNDEBUG
c Sun May 1 02:23:23 EDT 2022 Linux gra-login1 3.10.0-1160.59.1.el7.x86_64 x86_64
c 
c --- [ limit ] --------------------------------------------------------------
c 
c setting conflict limit to 200000 conflicts (due to '200000')
c 
c --- [ parsing input ] ------------------------------------------------------
c 
c reading DIMACS file from '12.cubes811.adj'
c opening file to read '12.cubes811.adj'
c found 'p cnf 5320 924210' header
c parsed 924210 clauses in 8.70 seconds process time
c closing file '12.cubes811.adj'
c after reading 686668111 bytes 654.9 MB
c 
c --- [ options ] ------------------------------------------------------------
c 
c all options are set to their default value
c 
c --- [ solving ] ------------------------------------------------------------
c 
c time measured in process time since initialization
c 
c  seconds   reductions  redundant  irredundant
c          MB    restarts       trail      variables
c           level   conflicts       glue        remaining
c 
c *  8.70 690  0 0   0    0    0  0% 0 923580 4108 77%
c {  9.80 733  0 0   0    0    0  0% 0 923580 4108 77%
c i 10.32 740 75 0   3   34   30 39% 2 923580 4107 77%
c i 10.34 740 72 0   3   36   31 38% 2 923580 4106 77%
c i 10.34 740 70 0   3   37   31 38% 2 923580 4065 76%
c i 10.34 740 68 0   3   38   31 38% 2 923580 4021 76%
c i 10.49 742 61 0   5   46   37 40% 3 923580 3992 75%
c i 10.55 742 54 0   8   53   43 40% 4 923580 3990 75%
c i 10.69 743 52 0   9   67   54 43% 8 923580 3989 75%
c i 10.80 744 49 0  14   86   69 45% 13 923580 3988 75%
c i 10.93 744 44 0  19  125   94 43% 11 923580 3987 75%
c i 10.93 744 43 0  19  126   94 43% 11 923580 3986 75%
c i 10.95 744 43 0  19  134   96 43% 11 923580 3972 75%
c i 11.01 745 24 0  19  290  112 38% 9 923580 3957 74%
c - 12.71 708 24 1  19  300  122 38% 9 89250 3957 74%
c i 12.85 682 30 1  28  341  149 39% 10 89250 3956 74%
c i 12.90 682 30 1  36  377  175 40% 10 89250 3955 74%
c i 12.92 682 30 1  38  382  179 40% 11 89250 3954 74%
c i 12.99 682 34 1  46  421  205 41% 12 89250 3953 74%
c i 13.04 682 32 1  57  458  225 41% 12 89250 3952 74%
c 
c  seconds   reductions  redundant   irredundant
c          MB    restarts       trail      variables
c           level   conflicts       glue        remaining
c 
c i 13.06 682 34 1  59  470  236 41% 13 89250 3951 74%
c i 13.10 682 37 1  63  485  250 41% 15 89250 3950 74%
c i 13.10 682 37 1  64  486  250 41% 15 89250 3949 74%
c i 13.10 682 37 1  64  487  250 41% 15 89250 3948 74%
c i 13.19 682 36 1  83  558  299 42% 16 89250 3947 74%
c i 13.19 682 36 1  83  559  299 42% 16 89250 3946 74%
c i 13.21 682 35 1  89  582  313 43% 16 89250 3945 74%
c i 13.26 682 35 1  94  607  327 43% 16 89250 3944 74%
c i 13.28 682 36 1  96  614  333 43% 17 89250 3943 74%
c i 13.33 682 39 1 102  638  356 43% 17 89250 3942 74%
c i 13.40 682 44 1 114  713  396 44% 17 89250 3922 74%
c i 13.42 682 43 1 114  745  408 44% 17 89250 3921 74%
c i 13.43 682 43 1 114  749  411 44% 17 89250 3920 74%
c i 13.43 682 43 1 114  750  411 44% 17 89250 3919 74%
c i 13.44 682 42 1 114  760  419 44% 17 89250 3918 74%
c i 13.50 682 45 1 115  897  468 44% 15 89250 3917 74%
c - 13.63 714 45 2 115  900  409 44% 15 89136 3917 74%
c i 13.64 714 44 2 115  925  411 44% 15 89136 3857 72%
c i 13.65 714 42 2 115  966  422 43% 15 89136 3856 72%
c i 13.65 714 42 2 115  967  422 43% 15 89136 3855 72%
c 
c  seconds   reductions  redundant   irredundant
c          MB    restarts       trail      variables
c           level   conflicts       glue        remaining
c 
c i 13.68 714 43 2 119 1000  453 44% 16 89136 3854 72%
c } 13.68 714 43 2 119 1000  453 44% 16 89136 3854 72%
c [ 13.68 714  0 2 119 1000  453  0% 0 89136 3854 72%
c O 13.69 714 54 2 119 1002  455 46% 3 89136 3854 72%
c i 13.73 714 12 2 119 1195  519 44% 9 89136 3853 72%
c i 13.74 714 13 2 119 1240  556 46% 10 89136 3852 72%
c i 13.79 714 17 2 119 1580  779 51% 14 89136 3851 72%
c i 13.81 714 17 2 119 1699  849 52% 14 89136 3850 72%
c i 13.82 714 16 2 119 1767  889 52% 14 89136 3849 72%
c - 13.91 711 16 3 119 1801  744 52% 13 87716 3849 72%
c i 13.95 711 16 3 119 1866  789 52% 14 87716 3848 72%
c i 13.96 711 16 3 119 1945  836 52% 14 87716 3847 72%
c i 13.96 711 16 3 119 1948  838 52% 14 87716 3846 72%
c i 13.96 711 16 3 119 1953  842 52% 14 87716 3845 72%
c i 13.97 711 17 3 119 1998  870 52% 14 87716 3844 72%
c i 13.98 711 17 3 119 2028  883 52% 14 87716 3843 72%
c i 13.98 711 17 3 119 2029  883 52% 14 87716 3842 72%
c i 13.98 711 17 3 119 2030  883 52% 14 87716 3841 72%
c i 14.01 711 17 3 120 2195  984 53% 14 87716 3840 72%
c ] 14.13 711 18 3 120 3002 1478 54% 15 87716 3840 72%
c 
c  seconds   reductions  redundant   irredundant
c          MB    restarts       trail      variables
c           level   conflicts       glue        remaining
c 
c { 14.13 711 43 3 120 3002 1478 44% 16 87716 3840 72%
c - 14.19 710 43 4 121 3002 1130 44% 16 87689 3840 72%
c F 14.23 739 43 4 121 3003 1130 10% 16 87689 3840 72%
c i 14.23 739 43 4 121 3003 1130 10% 16 87689 3839 72%
c i 14.23 739 43 4 121 3004 1130 10% 16 87689 3838 72%
c i 14.24 739 43 4 124 3012 1137 10% 16 87689 3837 72%
c i 14.31 739 31 4 138 3759 1216 13% 13 87689 3836 72%
c i 14.34 739 31 4 146 3793 1244 14% 14 87689 3835 72%
c i 14.34 739 31 4 146 3794 1244 14% 14 87689 3834 72%
c i 14.37 739 31 4 160 3847 1288 15% 14 87689 3833 72%
c i 14.40 739 31 4 168 3898 1321 16% 14 87689 3832 72%
c i 14.41 739 31 4 168 3915 1336 17% 14 87689 3831 72%
c i 14.44 739 29 4 170 4110 1393 18% 14 87689 3830 72%
c i 14.49 739 27 4 170 4405 1563 22% 14 87689 3829 72%
c - 14.57 739 27 5 177 4502 1007 23% 14 87657 3829 72%
c i 14.63 739 26 5 177 4712 1159 25% 13 87657 3828 72%
c i 14.67 739 26 5 185 4779 1197 25% 13 87657 3827 72%
c i 14.67 739 26 5 185 4784 1201 25% 13 87657 3818 72%
c i 14.67 739 26 5 186 4798 1210 25% 13 87657 3812 72%
c i 14.67 739 26 5 186 4809 1217 26% 13 87657 3811 72%
c 
c  seconds   reductions  redundant   irredundant
c          MB    restarts       trail      variables
c           level   conflicts       glue        remaining
c 
c d 14.84 739 25 5 187 5000 1327 27% 13 87373 3798 71%
c 2 14.87 739 25 5 187 5000 3535 27% 13 87323 3796 71%
c p 16.39 738 25 5 187 5000 10720 27% 13 87323 3573 67%
c d 16.51 738 25 5 187 5000 9884 27% 13 83879 3563 67%
c i 16.78 738 23 5 223 5968 10437 29% 13 83879 3562 67%
c # 16.80 738 23 5 225 6004 10463 29% 13 83879 3562 67%
c - 16.94 738 23 6 226 6303 1894 30% 13 83876 3562 67%
c } 17.26 738 22 6 299 7002 2373 31% 13 83876 3562 67%
c [ 17.26 738 18 6 299 7002 2373 74% 15 83876 3562 67%
c - 17.53 742 18 7 300 8406 2357 59% 15 83876 3562 67%
c I 17.78 742 19 7 301 10009 3334 52% 16 83876 3562 67%
c - 18.00 742 21 8 302 10808 2823 49% 17 83876 3562 67%
c - 18.83 742 22 9 304 13510 3182 45% 18 83876 3562 67%
c d 19.44 742 21 9 304 15000 4032 43% 17 75393 3560 67%
c 3 19.45 742 21 9 304 15000 5966 43% 17 75393 3560 67%
c 2 19.47 742 21 9 304 15000 6170 43% 17 75367 3560 67%
c p 20.68 742 21 9 304 15000 16179 43% 17 75367 3520 66%
c d 20.75 742 21 9 304 15000 14481 43% 17 58178 3508 66%
c ] 20.77 742 21 9 304 15003 14484 43% 17 58178 3508 66%
c { 20.77 742 22 9 304 15003 14484 31% 13 58178 3508 66%
c 
c  seconds   reductions    redundant   irredundant
c          MB    restarts         trail      variables
c           level    conflicts        glue        remaining
c 
c B 20.78 742 22 9 305 15011 14490 31% 13 58178 3508 66%
c s 20.95 742 21 9 355 15627 14310 32% 13 55883 3508 66%
c v 21.23 742 21 9 355 15627 14310 32% 13 55776 3508 66%
c w 21.26 742 21 9 355 15627 14305 32% 13 55776 3508 66%
c t 21.27 742 21 9 355 15627 14253 32% 13 55685 3508 66%
c e 21.38 743 21 9 355 15627 4839 32% 13 49972 485  9%
c s 21.45 743 21 9 355 15627 4837 32% 13 49540 485  9%
c - 21.72 743 20 10 399 16510 3114 74% 13 49540 485  9%
c i 22.08 743 18 10 436 19409 4602 76% 12 49540 476  9%
c i 22.12 743 18 10 436 19633 4688 76% 12 49540 463  9%
c - 22.21 743 18 11 436 19812 1819 76% 12 38209 463  9%
c W 22.40 743 17 11 464 21014 2465 76% 12 38209 463  9%
c - 22.79 743 16 12 579 23412 3175 76% 12 38209 463  9%
c - 23.57 743 15 13 649 27312 3769 76% 11 38209 463  9%
c F 23.74 743 15 13 657 28015 4215 76% 11 38209 463  9%
c d 24.08 743 15 13 759 30000 5145 76% 11 31588 461  9%
c 3 24.08 743 15 13 759 30000 5500 76% 11 31588 461  9%
c 2 24.09 743 15 13 759 30000 5517 76% 11 31587 444  8%
c p 24.31 743 15 13 759 30000 7220 76% 11 31587 434  8%
c } 24.48 743 15 13 788 31003 7638 76% 11 31587 434  8%
c 
c  seconds   reductions    redundant    irredundant
c          MB     restarts        trail       variables
c           level     conflicts        glue       remaining
c 
c [ 24.48 743 21 13 788 31003 7638 341% 17 31587 434  8%
c - 24.59 743 21 14 788 31515 4462 328% 17 31200 434  8%
c i 25.37 743 20 14 790 35575 6992 254% 17 31200 418  8%
c - 25.44 743 20 15 791 36017 1636 248% 17 17616 418  8%
c B 25.44 743 20 15 791 36018 1637 248% 17 17616 418  8%
c i 25.46 743 20 15 791 36239 1717 246% 17 17616 417  8%
c i 25.53 743 19 15 791 37189 2132 235% 16 17616 416  8%
c - 25.91 743 21 16 794 40819 3889 203% 17 17611 416  8%
c s 26.12 743 21 16 795 42325 4834 193% 17 17314 416  8%
c v 26.19 743 21 16 795 42325 4834 193% 17 17289 416  8%
c w 26.19 743 21 16 795 42325 4833 193% 17 17289 416  8%
c t 26.19 743 21 16 795 42325 4780 193% 17 17278 416  8%
c e 26.22 743 21 16 795 42325 4700 193% 17 17072 349  7%
c s 26.29 743 21 16 795 42325 4700 193% 17 17046 349  7%
c W 26.67 743 21 16 795 45019 6404 82% 17 17046 349  7%
c - 26.77 743 21 17 795 45920 5152 82% 17 17046 349  7%
c i 26.79 743 21 17 796 46060 5202 82% 17 17046 309  6%
c i 26.84 743 21 17 796 46467 5436 82% 17 17046 308  6%
c p 27.22 743 21 17 796 50000 8310 82% 17 17046 293  6%
c - 27.38 743 21 18 796 51321 4458 82% 18 10687 293  6%
c 
c  seconds   reductions    redundant   irredundant
c          MB     restarts        trail      variables
c           level     conflicts       glue       remaining
c 
c O 27.70 743 21 18 797 55021 6555 82% 17 10687 293  6%
c i 27.73 743 21 18 797 55374 6677 82% 17 10687 275  5%
c - 27.89 743 21 19 799 57021 3033 82% 17 10384 275  5%
c i 28.04 743 20 19 800 58857 4106 82% 17 10384 159  3%
c i 28.05 743 20 19 800 58919  699 65% 17 3552 155  3%
c i 28.06 743 20 19 800 58989  725 65% 17 3552  90  2%
c ] 28.06 743 20 19 800 58994  728 65% 17 3552  46  1%
c 0 28.06 743 20 19 800 58994  728 65% 17 3552  46  1%
c 
c --- [ writing output ] -----------------------------------------------------
c 
c writing simplified CNF to DIMACS file 'simp/12.cubes811.adj.simp1'
c * 28.06 743 20 19 800 58994  728 65% 17 3552  46  1%
c opening file to write 'simp/12.cubes811.adj.simp1'
c writing 'p cnf 5320 1' header
c closing file 'simp/12.cubes811.adj.simp1'
c after writing 15 bytes 0.0 MB
c wrote 1 clauses in 0.00 seconds process time
c 
c --- [ writing extension ] --------------------------------------------------
c 
c writing extension stack to 'simp/12.cubes811.adj.ext1'
c opening file to write 'simp/12.cubes811.adj.ext1'
c closing file 'simp/12.cubes811.adj.ext1'
c after writing 0 bytes 0.0 MB
c wrote 0 witnesses in 0.00 seconds process time
c 
c --- [ result ] -------------------------------------------------------------
c 
s UNSATISFIABLE
c 
c --- [ run-time profiling ] -------------------------------------------------
c 
c process time taken by individual solving procedures
c (percentage relative to process time for solving)
c 
c        15.02   77.61% search
c         8.70   44.98% parse
c         7.99   41.30% unstable
c         5.80   29.99% stable
c         4.33   22.39% simplify
c         3.00   15.48% probe
c         1.10    5.68% lucky
c         0.37    1.94% vivify
c         0.29    1.49% subsume
c         0.24    1.24% elim
c         0.12    0.64% walk
c         0.05    0.27% ternary
c   =================================
c        19.35   68.97% solve
c 
c last line shows process time for solving
c (percentage relative to total process time)
c 
c --- [ statistics ] ---------------------------------------------------------
c 
c chronological:              9599        16.27 %  of conflicts
c conflicts:                 58994      3048.55    per second
c decisions:                 86136      4451.13    per second
c eliminated:                 3090        58.08 %  of all variables
c fixed:                      2147        40.36 %  of all variables
c learned:                   57864        98.08 %  per conflict
c learned_lits:            5634504       100.00 %  learned literals
c minimized:                     0         0.00 %  learned literals
c shrunken:                3761589        66.76 %  learned literals
c minishrunken:             305028         5.41 %  learned literals
c propagations:            5279402         0.27 M  per second
c reduced:                   14585        24.72 %  per conflict
c rephased:                     10      5899.40    interval
c restarts:                    800        73.74    interval
c stabilizing:                   3        64.40 %  of conflicts
c substituted:                  37         0.70 %  of all variables
c subsumed:                  28140         1.36 %  of all clauses
c strengthened:              10706         0.52 %  of all clauses
c ternary:                    4853         0.61 %  of resolved
c vivified:                    174         0.01 %  of all clauses
c walked:                        2     29497.00    interval
c weakened:                   6559         3.00    average size
c 
c seconds are measured in process time for solving
c 
c --- [ resources ] ----------------------------------------------------------
c 
c total process time since initialization:        28.06    seconds
c total real time since initialization:           28.10    seconds
c maximum resident set size of process:          744.65    MB
c 
c --- [ shutting down ] ------------------------------------------------------
c 
c exit 20
WARNING! DIMACS header mismatch: wrong number of variables.
============================[ Problem Statistics ]=============================
|                                                                             |
|  Number of variables:             0                                         |
|  Number of clauses:               0                                         |
|  Parse time:                   0.00 s                                       |
|  Simplification time:          0.00 s                                       |
|                                                                             |
===============================================================================
Solved by simplification
database reductions   : 0
restarts              : 0
conflicts             : 0              (-nan /sec)
decisions             : 0              (-nan % random) (-nan /sec)
propagations          : 0              (-nan /sec)
conflict literals     : 0              (-nan % deleted)
actual reward         : -nan
Memory used           : 5.00 MB
CPU time              : 0 s

UNSATISFIABLE
